//Number of items      		
189
//Bin Capacity      
1000
//Known Best Solution  		
80
//Weight of Item
     796         1
     792         1
     784         1
     782         1
     780         1
     779         1
     771         1
     770         1
     766         1
     764         1
     755         1
     749         1
     746         1
     745         1
     742         1
     738         1
     728         1
     725         1
     711         1
     709         1
     707         1
     703         1
     696         2
     695         1
     694         1
     689         1
     683         1
     680         1
     679         1
     677         1
     676         2
     674         1
     671         1
     654         1
     650         1
     648         1
     644         1
     641         1
     640         1
     638         1
     637         1
     635         1
     633         1
     625         1
     623         2
     612         1
     602         1
     600         1
     599         1
     590         1
     587         1
     586         1
     581         1
     578         1
     570         1
     568         1
     559         2
     551         1
     545         1
     535         1
     533         1
     528         1
     526         1
     522         1
     520         1
     516         1
     511         2
     510         1
     502         1
     501         1
     498         1
     494         1
     489         1
     480         1
     475         1
     470         1
     467         1
     460         1
     459         1
     452         1
     448         1
     446         1
     442         1
     441         1
     431         1
     430         1
     426         1
     425         1
     421         1
     419         1
     417         1
     416         1
     413         1
     412         1
     405         1
     402         1
     399         1
     397         1
     384         1
     382         1
     380         1
     379         1
     376         1
     374         1
     373         1
     372         1
     360         1
     359         1
     356         1
     346         1
     343         1
     341         1
     336         1
     322         2
     318         1
     317         1
     314         1
     310         1
     308         1
     306         1
     303         1
     299         1
     293         1
     279         1
     275         1
     266         1
     264         1
     258         1
     243         1
     235         1
     234         2
     233         1
     231         1
     224         1
     222         1
     214         2
     210         1
     208         1
     201         1
     200         1
     197         1
     191         1
     190         1
     189         1
     188         1
     185         1
     184         2
     181         1
     178         1
     175         1
     174         1
     173         1
     170         1
     163         1
     155         1
     152         1
     149         1
     143         1
     142         1
     140         1
     135         1
     134         1
     133         1
     130         1
     125         1
     122         1
     113         1
     110         1
     101         1
      96         1
      75         1
      72         1
      65         1
      62         1
      59         1
      58         2
      57         1
      54         1
      44         1
      43         1
      40         1
      38         2
      33         1
      29         1
      26         1
      17         1
       8         1
       7         1
       5         1